
  32    1
  10

   0   0   7 2 4 5 6 7 10 11 
   4   1   3 14 13 3 
   4   4   6 19 18 17 16 12 9 
   1   5   5 25 19 13 12 9 
   5   6   4 28 27 17 8 
   2   5   6 28 27 26 25 19 13 
   1   4   4 27 25 13 12 
   4   3   4 26 19 16 13 
   2   9   5 27 26 24 21 15 
  10   3   5 28 26 25 22 19 
   2   4   4 22 21 20 18 
   2   4   3 28 26 15 
   7   5   2 21 15 
   4   5   3 26 25 20 
   8   4   2 22 20 
   5   4   2 25 20 
   5   4   2 25 20 
   2   2   2 27 23 
   9   3   1 20 
   4   4   2 31 23 
   8   4   2 31 23 
   3   4   1 23 
  10   7   2 30 29 
   1   2   2 30 29 
   8   3   1 30 
   6   2   1 29 
   9   2   1 31 
   9   2   1 29 
   9   6   1 32
   4   4   1 32
   8   5   1 32
   0   0   0 
